p cnf 14 64
-9 -11 14 0
7 8 -13 0
-5 -8 9 0
-6 7 -10 0
-3 6 -11 0
10 11 12 0
-5 -7 -11 0
-3 -4 9 0
1 -6 -13 0
1 -6 -9 0
-2 -3 4 0
1 3 14 0
6 -9 -14 0
2 -5 9 0
3 4 -12 0
-6 -12 14 0
-1 -2 -6 0
-2 -8 9 0
1 6 -13 0
6 7 -12 0
-8 11 14 0
-3 6 12 0
-3 -4 6 0
-2 3 -14 0
1 -5 6 0
8 -9 14 0
9 -11 13 0
3 -7 -14 0
-9 -12 -14 0
5 8 11 0
4 -6 -9 0
-4 -10 11 0
2 -9 -14 0
-5 6 -10 0
1 11 14 0
-5 8 -12 0
-2 -4 6 0
-2 -5 7 0
2 9 -13 0
-4 -9 12 0
-8 11 -12 0
-5 10 -12 0
-5 -10 -13 0
3 7 11 0
-3 -6 7 0
-1 -5 -10 0
3 7 -14 0
-7 -11 -14 0
-2 12 13 0
5 10 12 0
1 6 -7 0
3 -6 -7 0
-4 -10 -12 0
-2 11 -12 0
5 6 10 0
-2 13 -14 0
4 -7 -12 0
5 9 -14 0
-5 -6 -10 0
-3 -6 11 0
2 7 8 0
3 -13 -14 0
1 -7 -12 0
9 10 -11 0
